(set-logic QF_LRA)
(declare-fun __z3_0 () Bool)
(declare-fun __z3_1 () Bool)
(declare-fun __z3_63 () Real)
(declare-fun __z3_2 () Bool)
(declare-fun __z3_3 () Bool)
(declare-fun __z3_4 () Bool)
(declare-fun __z3_64 () Real)
(declare-fun __z3_5 () Bool)
(declare-fun __z3_6 () Bool)
(declare-fun __z3_65 () Real)
(declare-fun __z3_7 () Bool)
(declare-fun __z3_8 () Bool)
(declare-fun __z3_9 () Bool)
(declare-fun __z3_66 () Real)
(declare-fun __z3_10 () Bool)
(declare-fun __z3_11 () Bool)
(declare-fun __z3_12 () Bool)
(declare-fun __z3_13 () Bool)
(declare-fun __z3_14 () Bool)
(declare-fun __z3_15 () Bool)
(declare-fun __z3_16 () Bool)
(declare-fun __z3_17 () Bool)
(declare-fun __z3_18 () Bool)
(declare-fun __z3_19 () Bool)
(declare-fun __z3_67 () Real)
(declare-fun __z3_20 () Bool)
(declare-fun __z3_21 () Bool)
(declare-fun __z3_22 () Bool)
(declare-fun __z3_68 () Real)
(declare-fun __z3_23 () Bool)
(declare-fun __z3_24 () Bool)
(declare-fun __z3_25 () Real)
(declare-fun __z3_26 () Real)
(declare-fun __z3_27 () Real)
(declare-fun __z3_69 () Real)
(declare-fun __z3_28 () Real)
(declare-fun __z3_70 () Real)
(declare-fun __z3_29 () Bool)
(declare-fun __z3_30 () Real)
(declare-fun __z3_31 () Real)
(declare-fun __z3_32 () Bool)
(declare-fun __z3_33 () Bool)
(declare-fun __z3_34 () Bool)
(declare-fun __z3_35 () Bool)
(declare-fun __z3_36 () Bool)
(declare-fun __z3_37 () Bool)
(declare-fun __z3_38 () Bool)
(declare-fun __z3_39 () Real)
(declare-fun __z3_40 () Bool)
(declare-fun __z3_41 () Bool)
(declare-fun __z3_42 () Real)
(declare-fun __z3_43 () Bool)
(declare-fun __z3_61 () Real)
(declare-fun __z3_44 () Bool)
(declare-fun __z3_62 () Bool)
(declare-fun __z3_45 () Bool)
(declare-fun __z3_46 () Bool)
(declare-fun __z3_47 () Bool)
(declare-fun __z3_48 () Bool)
(declare-fun __z3_49 () Bool)
(declare-fun __z3_50 () Bool)
(declare-fun __z3_51 () Bool)
(declare-fun __z3_52 () Bool)
(declare-fun __z3_53 () Bool)
(declare-fun __z3_54 () Bool)
(declare-fun __z3_55 () Bool)
(declare-fun __z3_56 () Bool)
(declare-fun __z3_57 () Bool)
(declare-fun __z3_58 () Real)
(declare-fun __z3_59 () Real)
(declare-fun __z3_60 () Real)
(assert (let ((.def_0 (= __z3_59 __z3_70))) (let ((.def_1 (= __z3_42 5.0))) (let ((.def_2 (or .def_1 .def_0))) (let ((.def_3 (= __z3_59 __z3_66))) (let ((.def_4 (not .def_1))) (let ((.def_5 (or .def_4 .def_3))) (let ((.def_6 (= __z3_70 __z3_69))) (let ((.def_7 (= __z3_42 4.0))) (let ((.def_8 (or .def_7 .def_6))) (let ((.def_9 (= __z3_70 __z3_65))) (let ((.def_10 (not .def_7))) (let ((.def_11 (or .def_10 .def_9))) (let ((.def_12 (= __z3_69 __z3_63))) (let ((.def_13 (= __z3_42 3.0))) (let ((.def_14 (or .def_13 .def_12))) (let ((.def_15 (= __z3_69 __z3_64))) (let ((.def_16 (not .def_13))) (let ((.def_17 (or .def_16 .def_15))) (let ((.def_18 (= __z3_58 __z3_68))) (let ((.def_19 (or .def_1 .def_18))) (let ((.def_20 (= __z3_58 __z3_28))) (let ((.def_21 (or .def_4 .def_20))) (let ((.def_22 (= __z3_68 __z3_67))) (let ((.def_23 (or .def_7 .def_22))) (let ((.def_24 (= __z3_68 __z3_27))) (let ((.def_25 (or .def_10 .def_24))) (let ((.def_26 (= __z3_67 __z3_25))) (let ((.def_27 (or .def_13 .def_26))) (let ((.def_28 (= __z3_67 __z3_26))) (let ((.def_29 (or .def_16 .def_28))) (let ((.def_30 (= __z3_61 0.0))) (let ((.def_31 (= __z3_31 1.0))) (let ((.def_32 (or .def_31 .def_30))) (let ((.def_33 (= __z3_61 1.0))) (let ((.def_34 (not .def_31))) (let ((.def_35 (or .def_34 .def_33))) (let ((.def_36 (<= __z3_66 31.0))) (let ((.def_37 (<= 0.0 __z3_66))) (let ((.def_38 (<= __z3_65 31.0))) (let ((.def_39 (<= 0.0 __z3_65))) (let ((.def_40 (= __z3_30 5.0))) (let ((.def_41 (= __z3_30 4.0))) (let ((.def_42 (= __z3_30 3.0))) (let ((.def_43 (= __z3_30 2.0))) (let ((.def_44 (or .def_43 .def_42 .def_41 .def_40))) (let ((.def_45 (<= __z3_64 31.0))) (let ((.def_46 (<= 0.0 __z3_64))) (let ((.def_47 (= __z3_31 0.0))) (let ((.def_48 (or .def_47 .def_31))) (let ((.def_49 (<= __z3_63 31.0))) (let ((.def_50 (<= 0.0 __z3_63))) (let ((.def_51 (= __z3_42 2.0))) (let ((.def_52 (or .def_51 .def_13 .def_7 .def_1))) (let ((.def_53 (and __z3_62 true .def_1))) (let ((.def_54 (= __z3_28 __z3_66))) (let ((.def_55 (not .def_54))) (let ((.def_56 (=> .def_55 .def_53))) (let ((.def_57 (and __z3_62 true .def_7))) (let ((.def_58 (= __z3_27 __z3_65))) (let ((.def_59 (not .def_58))) (let ((.def_60 (=> .def_59 .def_57))) (let ((.def_61 (and __z3_62 true .def_13))) (let ((.def_62 (= __z3_26 __z3_64))) (let ((.def_63 (not .def_62))) (let ((.def_64 (=> .def_63 .def_61))) (let ((.def_65 (and __z3_62 true .def_51))) (let ((.def_66 (= __z3_25 __z3_63))) (let ((.def_67 (not .def_66))) (let ((.def_68 (=> .def_67 .def_65))) (let ((.def_69 (+ __z3_39 10.0))) (let ((.def_70 (= __z3_39 .def_69))) (let ((.def_71 (and __z3_62 true .def_70 .def_31 .def_40))) (let ((.def_72 (= __z3_24 __z3_38))) (let ((.def_73 (not .def_72))) (let ((.def_74 (=> .def_73 .def_71))) (let ((.def_75 (and __z3_62 true .def_70 .def_47 .def_40))) (let ((.def_76 (= __z3_23 __z3_37))) (let ((.def_77 (not .def_76))) (let ((.def_78 (=> .def_77 .def_75))) (let ((.def_79 (and __z3_62 true .def_70 .def_31 .def_41))) (let ((.def_80 (= __z3_22 __z3_36))) (let ((.def_81 (not .def_80))) (let ((.def_82 (=> .def_81 .def_79))) (let ((.def_83 (and __z3_62 true .def_70 .def_47 .def_41))) (let ((.def_84 (= __z3_21 __z3_35))) (let ((.def_85 (not .def_84))) (let ((.def_86 (=> .def_85 .def_83))) (let ((.def_87 (and __z3_62 true .def_70 .def_31 .def_42))) (let ((.def_88 (= __z3_20 __z3_34))) (let ((.def_89 (not .def_88))) (let ((.def_90 (=> .def_89 .def_87))) (let ((.def_91 (and __z3_62 true .def_70 .def_47 .def_42))) (let ((.def_92 (= __z3_19 __z3_33))) (let ((.def_93 (not .def_92))) (let ((.def_94 (=> .def_93 .def_91))) (let ((.def_95 (and __z3_62 true .def_70 .def_31 .def_43))) (let ((.def_96 (= __z3_3 __z3_32))) (let ((.def_97 (not .def_96))) (let ((.def_98 (=> .def_97 .def_95))) (let ((.def_99 (and __z3_62 true .def_70 .def_47 .def_43))) (let ((.def_100 (= __z3_1 __z3_29))) (let ((.def_101 (not .def_100))) (let ((.def_102 (=> .def_101 .def_99))) (let ((.def_103 (and __z3_62 true .def_31 .def_1))) (let ((.def_104 (= __z3_2 __z3_57))) (let ((.def_105 (not .def_104))) (let ((.def_106 (=> .def_105 .def_103))) (let ((.def_107 (and __z3_62 true .def_47 .def_1))) (let ((.def_108 (= __z3_0 __z3_56))) (let ((.def_109 (not .def_108))) (let ((.def_110 (=> .def_109 .def_107))) (let ((.def_111 (and __z3_62 true .def_31 .def_7))) (let ((.def_112 (= __z3_18 __z3_55))) (let ((.def_113 (not .def_112))) (let ((.def_114 (=> .def_113 .def_111))) (let ((.def_115 (and __z3_62 true .def_47 .def_7))) (let ((.def_116 (= __z3_17 __z3_54))) (let ((.def_117 (not .def_116))) (let ((.def_118 (=> .def_117 .def_115))) (let ((.def_119 (and __z3_62 true .def_31 .def_13))) (let ((.def_120 (= __z3_16 __z3_53))) (let ((.def_121 (not .def_120))) (let ((.def_122 (=> .def_121 .def_119))) (let ((.def_123 (and __z3_62 true .def_47 .def_13))) (let ((.def_124 (= __z3_15 __z3_52))) (let ((.def_125 (not .def_124))) (let ((.def_126 (=> .def_125 .def_123))) (let ((.def_127 (and __z3_62 true .def_31 .def_51))) (let ((.def_128 (= __z3_14 __z3_51))) (let ((.def_129 (not .def_128))) (let ((.def_130 (=> .def_129 .def_127))) (let ((.def_131 (and __z3_62 true .def_47 .def_51))) (let ((.def_132 (= __z3_13 __z3_50))) (let ((.def_133 (not .def_132))) (let ((.def_134 (=> .def_133 .def_131))) (let ((.def_135 (+ __z3_39 4.0))) (let ((.def_136 (= __z3_39 .def_135))) (let ((.def_137 (and __z3_62 true .def_136 .def_31 .def_1))) (let ((.def_138 (= __z3_12 __z3_49))) (let ((.def_139 (not .def_138))) (let ((.def_140 (=> .def_139 .def_137))) (let ((.def_141 (and __z3_62 true .def_136 .def_47 .def_1))) (let ((.def_142 (= __z3_11 __z3_48))) (let ((.def_143 (not .def_142))) (let ((.def_144 (=> .def_143 .def_141))) (let ((.def_145 (and __z3_62 true .def_136 .def_31 .def_7))) (let ((.def_146 (= __z3_10 __z3_47))) (let ((.def_147 (not .def_146))) (let ((.def_148 (=> .def_147 .def_145))) (let ((.def_149 (and __z3_62 true .def_136 .def_47 .def_7))) (let ((.def_150 (= __z3_9 __z3_46))) (let ((.def_151 (not .def_150))) (let ((.def_152 (=> .def_151 .def_149))) (let ((.def_153 (and __z3_62 true .def_136 .def_31 .def_13))) (let ((.def_154 (= __z3_8 __z3_45))) (let ((.def_155 (not .def_154))) (let ((.def_156 (=> .def_155 .def_153))) (let ((.def_157 (and __z3_62 true .def_136 .def_47 .def_13))) (let ((.def_158 (= __z3_7 __z3_44))) (let ((.def_159 (not .def_158))) (let ((.def_160 (=> .def_159 .def_157))) (let ((.def_161 (and __z3_62 true .def_136 .def_31 .def_51))) (let ((.def_162 (= __z3_6 __z3_43))) (let ((.def_163 (not .def_162))) (let ((.def_164 (=> .def_163 .def_161))) (let ((.def_165 (and __z3_62 true .def_136 .def_47 .def_51))) (let ((.def_166 (= __z3_5 __z3_41))) (let ((.def_167 (not .def_166))) (let ((.def_168 (=> .def_167 .def_165))) (let ((.def_169 (and __z3_62 true .def_136))) (let ((.def_170 (and __z3_62 true))) (let ((.def_171 (and .def_170 .def_169))) (let ((.def_172 (not .def_171))) (let ((.def_173 (or .def_170 .def_169))) (let ((.def_174 (= __z3_4 __z3_40))) (let ((.def_175 (not .def_174))) (let ((.def_176 (=> .def_175 .def_173))) (let ((.def_177 (<= 0.0 __z3_39))) (let ((.def_178 (and .def_31 .def_43))) (let ((.def_179 (or .def_178 __z3_29))) (let ((.def_180 (not .def_178))) (let ((.def_181 (or .def_180 __z3_32))) (let ((.def_182 (and .def_181 .def_179))) (let ((.def_183 (and .def_47 .def_42))) (let ((.def_184 (or .def_183 .def_182))) (let ((.def_185 (not .def_183))) (let ((.def_186 (or .def_185 __z3_33))) (let ((.def_187 (and .def_186 .def_184))) (let ((.def_188 (and .def_31 .def_42))) (let ((.def_189 (or .def_188 .def_187))) (let ((.def_190 (not .def_188))) (let ((.def_191 (or .def_190 __z3_34))) (let ((.def_192 (and .def_191 .def_189))) (let ((.def_193 (and .def_47 .def_41))) (let ((.def_194 (or .def_193 .def_192))) (let ((.def_195 (not .def_193))) (let ((.def_196 (or .def_195 __z3_35))) (let ((.def_197 (and .def_196 .def_194))) (let ((.def_198 (and .def_31 .def_41))) (let ((.def_199 (or .def_198 .def_197))) (let ((.def_200 (not .def_198))) (let ((.def_201 (or .def_200 __z3_36))) (let ((.def_202 (and .def_201 .def_199))) (let ((.def_203 (and .def_47 .def_40))) (let ((.def_204 (or .def_203 .def_202))) (let ((.def_205 (not .def_203))) (let ((.def_206 (or .def_205 __z3_37))) (let ((.def_207 (and .def_206 .def_204))) (let ((.def_208 (and .def_31 .def_40))) (let ((.def_209 (or .def_208 .def_207))) (let ((.def_210 (not .def_208))) (let ((.def_211 (or .def_210 __z3_38))) (let ((.def_212 (and .def_211 .def_209))) (let ((.def_213 (= .def_212 true))) (let ((.def_214 (=> true .def_213))) (let ((.def_215 (and .def_70 .def_214))) (let ((.def_216 (= __z3_40 false))) (let ((.def_217 (=> true .def_216))) (let ((.def_218 (and .def_31 .def_51))) (let ((.def_219 (or .def_218 __z3_41))) (let ((.def_220 (not .def_218))) (let ((.def_221 (or .def_220 __z3_43))) (let ((.def_222 (and .def_221 .def_219))) (let ((.def_223 (and .def_47 .def_13))) (let ((.def_224 (or .def_223 .def_222))) (let ((.def_225 (not .def_223))) (let ((.def_226 (or .def_225 __z3_44))) (let ((.def_227 (and .def_226 .def_224))) (let ((.def_228 (and .def_31 .def_13))) (let ((.def_229 (or .def_228 .def_227))) (let ((.def_230 (not .def_228))) (let ((.def_231 (or .def_230 __z3_45))) (let ((.def_232 (and .def_231 .def_229))) (let ((.def_233 (and .def_47 .def_7))) (let ((.def_234 (or .def_233 .def_232))) (let ((.def_235 (not .def_233))) (let ((.def_236 (or .def_235 __z3_46))) (let ((.def_237 (and .def_236 .def_234))) (let ((.def_238 (and .def_31 .def_7))) (let ((.def_239 (or .def_238 .def_237))) (let ((.def_240 (not .def_238))) (let ((.def_241 (or .def_240 __z3_47))) (let ((.def_242 (and .def_241 .def_239))) (let ((.def_243 (and .def_47 .def_1))) (let ((.def_244 (or .def_243 .def_242))) (let ((.def_245 (not .def_243))) (let ((.def_246 (or .def_245 __z3_48))) (let ((.def_247 (and .def_246 .def_244))) (let ((.def_248 (and .def_31 .def_1))) (let ((.def_249 (or .def_248 .def_247))) (let ((.def_250 (not .def_248))) (let ((.def_251 (or .def_250 __z3_49))) (let ((.def_252 (and .def_251 .def_249))) (let ((.def_253 (= .def_252 true))) (let ((.def_254 (=> true .def_253))) (let ((.def_255 (and .def_136 .def_254 .def_217))) (let ((.def_256 (or .def_218 __z3_50))) (let ((.def_257 (or .def_220 __z3_51))) (let ((.def_258 (and .def_257 .def_256))) (let ((.def_259 (or .def_223 .def_258))) (let ((.def_260 (or .def_225 __z3_52))) (let ((.def_261 (and .def_260 .def_259))) (let ((.def_262 (or .def_228 .def_261))) (let ((.def_263 (or .def_230 __z3_53))) (let ((.def_264 (and .def_263 .def_262))) (let ((.def_265 (or .def_233 .def_264))) (let ((.def_266 (or .def_235 __z3_54))) (let ((.def_267 (and .def_266 .def_265))) (let ((.def_268 (or .def_238 .def_267))) (let ((.def_269 (or .def_240 __z3_55))) (let ((.def_270 (and .def_269 .def_268))) (let ((.def_271 (or .def_243 .def_270))) (let ((.def_272 (or .def_245 __z3_56))) (let ((.def_273 (and .def_272 .def_271))) (let ((.def_274 (or .def_248 .def_273))) (let ((.def_275 (or .def_250 __z3_57))) (let ((.def_276 (and .def_275 .def_274))) (let ((.def_277 (= .def_276 true))) (let ((.def_278 (=> true .def_277))) (let ((.def_279 (= __z3_40 true))) (let ((.def_280 (=> true .def_279))) (let ((.def_281 (+ __z3_58 1.0))) (let ((.def_282 (= __z3_59 .def_281))) (let ((.def_283 (=> true .def_282))) (let ((.def_284 (= __z3_39 __z3_39))) (let ((.def_285 (and .def_284 .def_283 .def_280 .def_278))) (let ((.def_286 (or .def_178 __z3_13))) (let ((.def_287 (or .def_180 __z3_14))) (let ((.def_288 (and .def_287 .def_286))) (let ((.def_289 (or .def_183 .def_288))) (let ((.def_290 (or .def_185 __z3_15))) (let ((.def_291 (and .def_290 .def_289))) (let ((.def_292 (or .def_188 .def_291))) (let ((.def_293 (or .def_190 __z3_16))) (let ((.def_294 (and .def_293 .def_292))) (let ((.def_295 (or .def_193 .def_294))) (let ((.def_296 (or .def_195 __z3_17))) (let ((.def_297 (and .def_296 .def_295))) (let ((.def_298 (or .def_198 .def_297))) (let ((.def_299 (or .def_200 __z3_18))) (let ((.def_300 (and .def_299 .def_298))) (let ((.def_301 (or .def_203 .def_300))) (let ((.def_302 (or .def_205 __z3_0))) (let ((.def_303 (and .def_302 .def_301))) (let ((.def_304 (or .def_208 .def_303))) (let ((.def_305 (or .def_210 __z3_2))) (let ((.def_306 (and .def_305 .def_304))) (let ((.def_307 (+ __z3_39 __z3_60))) (let ((.def_308 (<= .def_307 __z3_39))) (let ((.def_309 (< (- 1.0) .def_307))) (let ((.def_310 (and .def_309 .def_308))) (let ((.def_311 (=> .def_310 .def_306))) (let ((.def_312 (or .def_218 __z3_1))) (let ((.def_313 (or .def_220 __z3_3))) (let ((.def_314 (and .def_313 .def_312))) (let ((.def_315 (or .def_223 .def_314))) (let ((.def_316 (or .def_225 __z3_19))) (let ((.def_317 (and .def_316 .def_315))) (let ((.def_318 (or .def_228 .def_317))) (let ((.def_319 (or .def_230 __z3_20))) (let ((.def_320 (and .def_319 .def_318))) (let ((.def_321 (or .def_233 .def_320))) (let ((.def_322 (or .def_235 __z3_21))) (let ((.def_323 (and .def_322 .def_321))) (let ((.def_324 (or .def_238 .def_323))) (let ((.def_325 (or .def_240 __z3_22))) (let ((.def_326 (and .def_325 .def_324))) (let ((.def_327 (or .def_243 .def_326))) (let ((.def_328 (or .def_245 __z3_23))) (let ((.def_329 (and .def_328 .def_327))) (let ((.def_330 (or .def_248 .def_329))) (let ((.def_331 (or .def_250 __z3_24))) (let ((.def_332 (and .def_331 .def_330))) (let ((.def_333 (or .def_218 __z3_13))) (let ((.def_334 (or .def_220 __z3_14))) (let ((.def_335 (and .def_334 .def_333))) (let ((.def_336 (or .def_223 .def_335))) (let ((.def_337 (or .def_225 __z3_15))) (let ((.def_338 (and .def_337 .def_336))) (let ((.def_339 (or .def_228 .def_338))) (let ((.def_340 (or .def_230 __z3_16))) (let ((.def_341 (and .def_340 .def_339))) (let ((.def_342 (or .def_233 .def_341))) (let ((.def_343 (or .def_235 __z3_17))) (let ((.def_344 (and .def_343 .def_342))) (let ((.def_345 (or .def_238 .def_344))) (let ((.def_346 (or .def_240 __z3_18))) (let ((.def_347 (and .def_346 .def_345))) (let ((.def_348 (or .def_243 .def_347))) (let ((.def_349 (or .def_245 __z3_0))) (let ((.def_350 (and .def_349 .def_348))) (let ((.def_351 (or .def_248 .def_350))) (let ((.def_352 (or .def_250 __z3_2))) (let ((.def_353 (and .def_352 .def_351))) (let ((.def_354 (not .def_353))) (let ((.def_355 (or .def_218 __z3_5))) (let ((.def_356 (or .def_220 __z3_6))) (let ((.def_357 (and .def_356 .def_355))) (let ((.def_358 (or .def_223 .def_357))) (let ((.def_359 (or .def_225 __z3_7))) (let ((.def_360 (and .def_359 .def_358))) (let ((.def_361 (or .def_228 .def_360))) (let ((.def_362 (or .def_230 __z3_8))) (let ((.def_363 (and .def_362 .def_361))) (let ((.def_364 (or .def_233 .def_363))) (let ((.def_365 (or .def_235 __z3_9))) (let ((.def_366 (and .def_365 .def_364))) (let ((.def_367 (or .def_238 .def_366))) (let ((.def_368 (or .def_240 __z3_10))) (let ((.def_369 (and .def_368 .def_367))) (let ((.def_370 (or .def_243 .def_369))) (let ((.def_371 (or .def_245 __z3_11))) (let ((.def_372 (and .def_371 .def_370))) (let ((.def_373 (or .def_248 .def_372))) (let ((.def_374 (or .def_250 __z3_12))) (let ((.def_375 (and .def_374 .def_373))) (let ((.def_376 (not .def_375))) (let ((.def_377 (not __z3_4))) (let ((.def_378 (and .def_13 .def_43))) (let ((.def_379 (or .def_378 false))) (let ((.def_380 (not .def_378))) (let ((.def_381 (or .def_380 false))) (let ((.def_382 (and .def_381 .def_379))) (let ((.def_383 (and .def_7 .def_43))) (let ((.def_384 (or .def_383 .def_382))) (let ((.def_385 (not .def_383))) (let ((.def_386 (or .def_385 false))) (let ((.def_387 (and .def_386 .def_384))) (let ((.def_388 (and .def_1 .def_43))) (let ((.def_389 (or .def_388 .def_387))) (let ((.def_390 (not .def_388))) (let ((.def_391 (or .def_390 false))) (let ((.def_392 (and .def_391 .def_389))) (let ((.def_393 (and .def_51 .def_42))) (let ((.def_394 (or .def_393 .def_392))) (let ((.def_395 (not .def_393))) (let ((.def_396 (or .def_395 true))) (let ((.def_397 (and .def_396 .def_394))) (let ((.def_398 (and .def_13 .def_42))) (let ((.def_399 (or .def_398 .def_397))) (let ((.def_400 (not .def_398))) (let ((.def_401 (or .def_400 false))) (let ((.def_402 (and .def_401 .def_399))) (let ((.def_403 (and .def_7 .def_42))) (let ((.def_404 (or .def_403 .def_402))) (let ((.def_405 (not .def_403))) (let ((.def_406 (or .def_405 false))) (let ((.def_407 (and .def_406 .def_404))) (let ((.def_408 (and .def_1 .def_42))) (let ((.def_409 (or .def_408 .def_407))) (let ((.def_410 (not .def_408))) (let ((.def_411 (or .def_410 false))) (let ((.def_412 (and .def_411 .def_409))) (let ((.def_413 (and .def_51 .def_41))) (let ((.def_414 (or .def_413 .def_412))) (let ((.def_415 (not .def_413))) (let ((.def_416 (or .def_415 false))) (let ((.def_417 (and .def_416 .def_414))) (let ((.def_418 (and .def_13 .def_41))) (let ((.def_419 (or .def_418 .def_417))) (let ((.def_420 (not .def_418))) (let ((.def_421 (or .def_420 true))) (let ((.def_422 (and .def_421 .def_419))) (let ((.def_423 (and .def_7 .def_41))) (let ((.def_424 (or .def_423 .def_422))) (let ((.def_425 (not .def_423))) (let ((.def_426 (or .def_425 false))) (let ((.def_427 (and .def_426 .def_424))) (let ((.def_428 (and .def_1 .def_41))) (let ((.def_429 (or .def_428 .def_427))) (let ((.def_430 (not .def_428))) (let ((.def_431 (or .def_430 false))) (let ((.def_432 (and .def_431 .def_429))) (let ((.def_433 (and .def_51 .def_40))) (let ((.def_434 (or .def_433 .def_432))) (let ((.def_435 (not .def_433))) (let ((.def_436 (or .def_435 false))) (let ((.def_437 (and .def_436 .def_434))) (let ((.def_438 (and .def_13 .def_40))) (let ((.def_439 (or .def_438 .def_437))) (let ((.def_440 (not .def_438))) (let ((.def_441 (or .def_440 false))) (let ((.def_442 (and .def_441 .def_439))) (let ((.def_443 (and .def_7 .def_40))) (let ((.def_444 (or .def_443 .def_442))) (let ((.def_445 (not .def_443))) (let ((.def_446 (or .def_445 true))) (let ((.def_447 (and .def_446 .def_444))) (let ((.def_448 (and .def_1 .def_40))) (let ((.def_449 (or .def_448 .def_447))) (let ((.def_450 (not .def_448))) (let ((.def_451 (or .def_450 false))) (let ((.def_452 (and .def_451 .def_449))) (let ((.def_453 (= __z3_61 __z3_58))) (let ((.def_454 (and .def_453 .def_452 .def_377 .def_376 .def_354 .def_332))) (let ((.def_455 (<= __z3_39 __z3_39))) (let ((.def_456 (< (- 1.0) __z3_39))) (let ((.def_457 (and .def_456 .def_455))) (let ((.def_458 (=> .def_457 .def_454))) (let ((.def_459 (<= __z3_60 15.0))) (let ((.def_460 (<= 15.0 __z3_60))) (let ((.def_461 (and .def_460 .def_459))) (let ((.def_462 (and .def_461 .def_308 .def_458 .def_311 .def_285 .def_255 .def_215))) (let ((.def_463 (=> __z3_62 .def_462))) (let ((.def_464 (<= __z3_28 31.0))) (let ((.def_465 (<= 0.0 __z3_28))) (let ((.def_466 (<= __z3_27 31.0))) (let ((.def_467 (<= 0.0 __z3_27))) (let ((.def_468 (<= __z3_26 31.0))) (let ((.def_469 (<= 0.0 __z3_26))) (let ((.def_470 (<= __z3_25 31.0))) (let ((.def_471 (<= 0.0 __z3_25))) (let ((.def_472 (= __z3_28 0.0))) (let ((.def_473 (= __z3_27 0.0))) (let ((.def_474 (= __z3_26 0.0))) (let ((.def_475 (= __z3_25 0.0))) (let ((.def_476 (= false false))) (let ((.def_477 (= __z3_24 false))) (let ((.def_478 (= __z3_23 false))) (let ((.def_479 (= __z3_22 false))) (let ((.def_480 (= __z3_21 false))) (let ((.def_481 (= __z3_20 false))) (let ((.def_482 (= __z3_19 false))) (let ((.def_483 (= __z3_18 false))) (let ((.def_484 (= __z3_17 false))) (let ((.def_485 (= __z3_16 false))) (let ((.def_486 (= __z3_15 false))) (let ((.def_487 (= __z3_14 false))) (let ((.def_488 (= __z3_13 false))) (let ((.def_489 (= __z3_12 false))) (let ((.def_490 (= __z3_11 false))) (let ((.def_491 (= __z3_10 false))) (let ((.def_492 (= __z3_9 false))) (let ((.def_493 (= __z3_8 false))) (let ((.def_494 (= __z3_7 false))) (let ((.def_495 (= __z3_6 false))) (let ((.def_496 (= __z3_5 false))) (let ((.def_497 (= __z3_4 false))) (let ((.def_498 (= __z3_3 true))) (let ((.def_499 (= __z3_2 true))) (let ((.def_500 (= __z3_1 true))) (let ((.def_501 (= __z3_0 true))) (let ((.def_502 (= true true))) (let ((.def_503 (= 1.0 1.0))) (let ((.def_504 (= 0.0 0.0))) (let ((.def_505 (and .def_504 .def_503 .def_502 .def_502 .def_502 .def_501 .def_500 .def_499 .def_498 .def_497 .def_496 .def_495 .def_494 .def_493 .def_492 .def_491 .def_490 .def_489 .def_488 .def_487 .def_486 .def_485 .def_484 .def_483 .def_482 .def_481 .def_480 .def_479 .def_478 .def_477 .def_476 .def_476 .def_476 .def_476 .def_476 .def_476 .def_476 .def_476 .def_476 .def_476 .def_476 .def_476 .def_476 .def_475 .def_474 .def_473 .def_472 .def_471 .def_470 .def_469 .def_468 .def_467 .def_466 .def_465 .def_464 .def_463 .def_177 .def_176 .def_172 .def_168 .def_164 .def_160 .def_156 .def_152 .def_148 .def_144 .def_140 .def_134 .def_130 .def_126 .def_122 .def_118 .def_114 .def_110 .def_106 .def_102 .def_98 .def_94 .def_90 .def_86 .def_82 .def_78 .def_74 .def_68 .def_64 .def_60 .def_56 .def_52 .def_50 .def_49 .def_48 .def_46 .def_45 .def_44 .def_39 .def_38 .def_37 .def_36 .def_35 .def_32 .def_29 .def_27 .def_25 .def_23 .def_21 .def_19 .def_17 .def_14 .def_11 .def_8 .def_5 .def_2))) .def_505)))))))))))))))))))))))))))))))))))))))))))))))))))))))))))))))))))))))))))))))))))))))))))))))))))))))))))))))))))))))))))))))))))))))))))))))))))))))))))))))))))))))))))))))))))))))))))))))))))))))))))))))))))))))))))))))))))))))))))))))))))))))))))))))))))))))))))))))))))))))))))))))))))))))))))))))))))))))))))))))))))))))))))))))))))))))))))))))))))))))))))))))))))))))))))))))))))))))))))))))))))))))))))))))))))))))))))))))))))))))))))))))))))))))))))))))))))))))))))))))))))))))))))))))))))))))))))
(check-sat)
